129
100
10
8
2
3
6
18
15
4
5
7
13
3
18
2
12
6
23
3
13
1
10
4
21
7
20
7
11
13
25
24
13
16
10
6
9
16
2
9
2
19
1
25
10
17
15
10
13
5
9
23
10
5
12
18
18
1
12
3
1
25
8
13
21
15
18
1
21
9
8
14
4
12
13
19
24
3
15
15
1
19
22
5
9
16
13
14
13
6
1
20
20
5
10
10
12
10
10
24
8
1
6
11
23
6
1
11
4
11
21
2
15
8
10
5
2
20
17
25
25
8
19
20
24
2
11
24
6
15
17
